
Gurobi 10.0.0 (win64, C++) logging started Sat Dec  2 10:05:09 2023

Set parameter TokenServer to value "141.30.89.215"
Warning: Gurobi version mismatch between C++ 10.0.3 and C library 10.0.0
Set parameter Threads to value 8
Set parameter LazyConstraints to value 1
Set parameter PreCrush to value 1
Set parameter TimeLimit to value 28800
Set parameter SolutionLimit to value 10000
Gurobi Optimizer version 10.0.0 build v10.0.0rc2 (win64)

CPU model: AMD EPYC 7513 32-Core Processor, instruction set [SSE2|AVX|AVX2]
Thread count: 16 physical cores, 16 logical processors, using up to 8 threads

Optimize a model with 359 rows, 676 columns and 1964 nonzeros
Model fingerprint: 0xb0f21c6a
Variable types: 0 continuous, 676 integer (676 binary)
Coefficient statistics:
  Matrix range     [1e+00, 1e+00]
  Objective range  [5e+00, 9e+01]
  Bounds range     [1e+00, 1e+00]
  RHS range        [1e+00, 8e+00]

User MIP start produced solution with objective 817.227 (0.00s)
Loaded user MIP start with objective 817.227

Presolve removed 47 rows and 105 columns
Presolve time: 0.00s
Presolved: 312 rows, 571 columns, 1645 nonzeros
Variable types: 0 continuous, 571 integer (571 binary)

Root relaxation: objective 4.668467e+02, 90 iterations, 0.01 seconds (0.00 work units)

    Nodes    |    Current Node    |     Objective Bounds      |     Work
 Expl Unexpl |  Obj  Depth IntInf | Incumbent    BestBd   Gap | It/Node Time

     0     0  466.84671    0    -  817.22727  466.84671  42.9%     -    0s
     0     0  492.83241    0   18  817.22727  492.83241  39.7%     -    0s
     0     0  545.92631    0   20  817.22727  545.92631  33.2%     -    0s
     0     0  577.50612    0   40  817.22727  577.50612  29.3%     -    0s
     0     0  583.50523    0   10  817.22727  583.50523  28.6%     -    0s
     0     0  587.09192    0   65  817.22727  587.09192  28.2%     -    0s
     0     0  596.93134    0   57  817.22727  596.93134  27.0%     -    0s
     0     0  598.49714    0   76  817.22727  598.49714  26.8%     -    0s
     0     0  599.91633    0   69  817.22727  599.91633  26.6%     -    0s
     0     0  600.59437    0   79  817.22727  600.59437  26.5%     -    0s
     0     0  602.09309    0   63  817.22727  602.09309  26.3%     -    0s
     0     0  602.40229    0   69  817.22727  602.40229  26.3%     -    0s
     0     0  602.66426    0   84  817.22727  602.66426  26.3%     -    0s
     0     0  602.70033    0   82  817.22727  602.70033  26.3%     -    0s
     0     0  603.38250    0   18  817.22727  603.38250  26.2%     -    0s
     0     0  603.48441    0   81  817.22727  603.48441  26.2%     -    0s
     0     0  603.65522    0   82  817.22727  603.65522  26.1%     -    0s
     0     0  603.67621    0   73  817.22727  603.67621  26.1%     -    0s
     0     2  603.69795    0   75  817.22727  603.69795  26.1%     -    1s
    78    92  604.60431   11   74  817.22727  604.15669  26.1%  54.5    5s
H  167   178                     727.6772627  604.15669  17.0%  42.6    8s
   310   318  615.74111   31   34  727.67726  604.15669  17.0%  35.1   10s
*  379   356              28     668.4795705  604.15669  9.62%  31.4   10s
H  464   411                     631.0846411  604.15669  4.27%  29.4   11s
H  476   412                     630.1275730  604.15669  4.12%  29.3   11s
  1645  1064  609.91331   20   85  630.12757  607.50575  3.59%  24.2   15s
 11166  4184  628.43082   38   39  630.12757  616.72260  2.13%  28.8   20s
 16683  4011     cutoff   30       630.12757  621.69345  1.34%  32.0   25s

Cutting planes:
  User: 1236
  Gomory: 10
  Cover: 2
  Clique: 6
  MIR: 4
  Flow cover: 8
  Zero half: 48
  Lazy constraints: 154

Explored 23465 nodes (750852 simplex iterations) in 29.49 seconds (27.90 work units)
Thread count was 8 (of 16 available processors)

Solution count 5: 630.128 631.085 668.48 ... 817.227

Optimal solution found (tolerance 1.00e-04)
Best objective 6.301275729831e+02, best bound 6.301275729831e+02, gap 0.0000%

User-callback calls 48071, time in user-callback 14.20 sec
### START EXACT APPROACH ###
ProblemVariant: 2
### START PREPROCESSING ###
## Start infeasible path procedure ## 
Deleted arcs: 78
Infeasible tail paths: 8
Infeasible 2-node combinations: 39
## Start extended infeasible path procedure ##
Deleted arcs: 79
Infeasible tail paths: 7
Infeasible 2-node combinations: 39
## Start start solution procedure ##
Start solution with 8 Vehicles and total costs 817.227 in 7.73287 s.
### END PREPROCESSING ###
Route 0 0-2-4-25-10-0 : weight util 0.979167 | volume util 0.547733 | feasible with packing heuristic | feasible with CP model
Route 1 0-3-0 : weight util 0.854167 | volume util 0.046200 | feasible with packing heuristic | feasible with CP model
Route 2 0-9-8-11-12-0 : weight util 1.000000 | volume util 0.538333 | feasible with packing heuristic | feasible with CP model
Route 3 0-15-19-0 : weight util 0.937500 | volume util 0.334400 | feasible with packing heuristic | feasible with CP model
Route 4 0-16-13-7-1-0 : weight util 1.000000 | volume util 0.578311 | feasible with packing heuristic | feasible with CP model
Route 5 0-17-5-14-0 : weight util 0.958333 | volume util 0.606222 | feasible with packing heuristic | feasible with CP model
Route 6 0-21-20-6-23-0 : weight util 0.958333 | volume util 0.536889 | infeasible with packing heuristic | feasible with CP model
Route 7 0-22-18-24-0 : weight util 0.958333 | volume util 0.426689 | feasible with packing heuristic | feasible with CP model
